cvc5/9583.corecstrs.readable_hard.smt2
(set-info :smt-lib-version 2.6)
(set-logic QF_SLIA)
(set-info :source |
Generated by: Andrew Reynolds
Generated on: 2018-04-25
Generator: Kudzu, converted to v2.6 by CVC4
Application: Symbolic Execution of Javascript
Target solver: Kaluza
Publications: "A symbolic execution framework for JavaScript" by P. Saxena, D. Akhawe, S. Hanna, F. Mao, S. McCamant, and D. Song, 2010.
|)
(set-info :license "https://creativecommons.org/licenses/by/4.0/")
(set-info :category "industrial")
(set-info :status unknown)



(declare-fun T_1 () Bool)
(declare-fun T_2 () Bool)
(declare-fun var_0xINPUT_340186 () String)
(declare-const part_0_5897 String)
(declare-const rest_0_9820 String)
(declare-const num_1_2312 Int)
(assert (= T_1 (= var_0xINPUT_340186 "Search")))
(assert (= T_2 (not T_1)))
(assert T_2)
(assert (= (str.split_at var_0xINPUT_340186 "," 2) part_0_5897))
(assert (= (str.len part_0_5897) 9))
(assert (= (str.split_at var_0xINPUT_340186 "," 0) "wx15tvtux"))
(assert (= (str.split_at var_0xINPUT_340186 "," 4) var_0xINPUT_340186))
(assert (= (str.split_rest var_0xINPUT_340186 "," 4) rest_0_9820))
(assert (str.contains rest_0_9820 "h"))
(assert (and (>= (str.num_splits var_0xINPUT_340186 ",") 1) (<= (str.num_splits var_0xINPUT_340186 ",") 5)))
(assert (= (str.num_splits var_0xINPUT_340186 ",") num_1_2312))
(assert (< num_1_2312 4))
(check-sat)

(exit)
(get-model)
